5   12   4
4   3   1   23   2   23   3   23   3   4   28   5   28   6   28   3   7   20   8   20   9   20   3   10   30   11   30   12   30   
4   3   1   29   2   29   3   29   3   4   29   5   29   6   29   3   7   24   8   24   9   24   3   10   23   11   23   12   23   
4   3   1   22   2   22   3   22   3   4   30   5   30   6   30   3   7   21   8   21   9   21   3   10   22   11   22   12   22   
4   3   1   24   2   24   3   24   3   4   23   5   23   6   23   3   7   33   8   33   9   33   3   10   32   11   32   12   32   
4   3   1   40   2   40   3   40   3   4   34   5   34   6   34   3   7   33   8   33   9   33   3   10   39   11   39   12   39   
